CARROOOOOOOOOOCAAAAAAAAAAAAAA
Tried aggregator 1 time.
MIP Presolve eliminated 0 rows and 1 columns.
Reduced MIP has 109902 rows, 100 columns, and 439608 nonzeros.
Reduced MIP has 100 binaries, 0 generals, 0 SOSs, and 0 indicators.
Probing time =    0.01 sec.
Tried aggregator 1 time.
Presolve time =    0.27 sec.
Found feasible solution after 0.30 sec.  Objective = 100.0000
Probing time =    0.01 sec.
MIP emphasis: balance optimality and feasibility.
MIP search method: dynamic search.
Parallel mode: none, using 1 thread.
Root relaxation solution time =    0.56 sec.

        Nodes                                         Cuts/
   Node  Left     Objective  IInf  Best Integer    Best Bound    ItCnt     Gap

*     0+    0                          100.0000                   1140     --- 
      0     0       22.6667    56      100.0000       22.6667     1140   77.33%
*     0+    0                           24.0000       22.6667     1140    5.56%
      0     0        cutoff             24.0000                   1165    0.00%
Elapsed real time =   3.02 sec. (tree size =  0.00 MB, solutions = 2)

Implied bound cuts applied:  323
Zero-half cuts applied:  38
Gomory fractional cuts applied:  1

Root node processing (before b&c):
  Real time             =    2.75
Sequential b&c:
  Real time             =    0.00
                          -------
Total (root+branch&cut) =    2.75 sec.
Nodes: 0
OBJ: 24
0 1 1 0 1 0 1 1 1 0 0 1 0 1 1 1 1 1 1 0 1 1 1 1 0 0 1 1 1 1 1 1 1 1 0 0 1 0 1 0 1 1 1 1 1 1 1 1 0 1 0 1 1 0 1 0 1 1 0 1 1 0 1 1 1 1 1 1 1 1 1 1 1 0 1 0 1 1 1 1 1 0 1 1 1 1 1 1 1 1 1 0 1 1 0 1 1 1 1 1 
